NAME: tsp50_18
COMMENT: 50-tsp problem (Padberg/Rinaldi)
TYPE: TSP
DIMENSION: 50
EDGE_WEIGHT_TYPE : EUC_2D
NODE_COORD_SECTION
1 17 37
2 12 14
3 22 5
4 33 36
5 5 9
6 40 23
7 34 21
8 16 29
9 21 35
10 13 16
11 20 14
12 33 15
13 16 10
14 33 17
15 20 5
16 34 9
17 16 7
18 13 17
19 24 21
20 31 3
21 20 18
22 9 7
23 40 25
24 10 23
25 20 11
26 35 13
27 5 1
28 11 5
29 26 22
30 22 19
31 8 6
32 37 37
33 25 39
34 16 35
35 39 4
36 19 39
37 10 39
38 1 36
39 12 25
40 39 33
41 3 15
42 38 6
43 10 3
44 11 27
45 6 23
46 21 24
47 27 2
48 4 19
49 33 34
50 4 19
